nNurses = 149;
nHours = 30;
minHours = 3;
maxHours = 13;
maxConsec = 10;
maxPresence = 30;
demand = [16, 13, 14, 17, 20, 23, 27, 25, 21, 16, 20, 21, 18, 16, 15, 19, 16, 13, 8, 10, 12, 11, 16, 17, 16, 17, 19, 18, 21, 24];
